84
1 87 
1 112 
2 9 56 
3 49 42 17 
1 25 
1 64 
1 32 
1 116 
3 7 80 34 
2 83 105 
1 26 
3 27 94 29 
2 15 50 
1 88 
1 44 
1 77 
4 43 78 103 39 
2 79 102 
1 81 
3 23 66 21 
2 117 3 
2 33 61 
1 63 
1 55 
1 6 
1 107 
3 86 16 18 
1 71 
2 76 1 
1 45 
1 68 
1 52 
1 38 
1 85 
1 96 
1 84 
1 8 
1 48 
1 93 
1 13 
1 58 
1 114 
2 14 51 
1 35 
2 36 54 
2 37 47 
2 53 90 
2 109 5 
3 2 30 4 
1 106 
2 98 65 
2 72 100 
1 69 
1 99 
2 113 110 
2 59 74 
2 91 73 
1 101 
1 67 
1 120 
2 57 20 
1 40 
1 70 
1 28 
1 97 
3 89 108 12 
1 104 
1 41 
1 19 
1 92 
1 10 
1 118 
1 111 
1 115 
1 60 
1 46 
1 75 
1 119 
1 11 
2 31 62 
1 95 
1 24 
1 22 
1 82 
